000 000 000 000 000 000 000 000 000 -99 -99 -99 000 000 000 000 000 000 000 001 000 001 002 003 004 003 004 003 007 005 002
000 000 000 000 000 000 000 000 000 -99 -99 -99 -99 000 000 000 000 000 000 000 000 000 001 003 003 003 001 003 005 005 003
000 000 000 000 000 000 000 000 000 000 -99 -99 -99 -99 000 000 000 000 000 001 000 000 000 002 003 002 002 002 002 007 003
000 000 000 000 000 000 000 000 000 000 -99 000 -99 -99 000 000 000 001 000 000 000 000 000 000 001 001 002 002 003 003 004
000 000 000 000 000 000 000 000 000 -99 -99 000 000 000 -99 000 -99 000 000 000 000 000 000 000 001 001 002 002 004 004 003
000 000 000 000 000 000 000 000 000 000 -99 000 000 000 -99 -99 -99 000 000 000 000 000 000 001 001 001 002 003 004 004 003
000 000 000 000 000 000 000 000 000 -99 -99 000 000 000 -99 -99 000 000 000 000 000 000 001 001 001 002 002 004 005 003 003
000 000 000 000 000 -99 000 000 000 -99 000 -99 000 000 -99 -99 000 000 000 000 000 000 000 001 001 002 003 004 004 003 003
000 000 000 000 000 -99 -99 000 000 000 000 000 -99 -99 -99 000 000 000 -99 000 000 000 000 001 001 001 002 002 002 002 004
000 000 000 000 000 000 000 000 000 000 000 000 000 -99 000 000 000 000 000 000 000 000 -99 000 000 001 001 001 002 001 004
000 000 000 000 000 000 000 000 000 000 000 000 000 000 000 000 000 000 000 000 000 000 -99 000 000 000 001 000 001 000 002
000 000 000 000 000 000 000 000 000 000 000 000 000 000 000 000 000 000 000 000 000 000 -99 000 000 000 000 000 000 000 000
000 000 000 000 000 000 000 000 000 000 000 000 000 000 000 000 000 000 000 000 000 000 -99 -99 000 000 -99 -99 -99 -99 000
000 000 000 000 000 000 000 000 -99 -99 000 000 000 000 -99 000 000 000 000 000 000 000 -99 -99 000 000 -99 000 000 -99 -99
000 000 000 000 000 000 000 000 -99 -99 000 -99 000 000 -99 000 000 000 000 000 -99 000 -99 -99 000 000 000 000 000 -99 -99
000 -99 000 000 000 000 000 000 -99 -99 -99 -99 000 000 -99 000 000 000 000 000 000 000 -99 -99 000 000 000 000 000 -99 -99
-99 -99 -99 000 000 000 000 000 000 -99 -99 -99 000 000 000 000 000 000 000 000 000 -99 000 -99 000 000 000 000 000 -99 -99
000 000 000 -99 -99 000 000 000 000 000 -99 000 -99 000 000 000 000 000 -99 000 000 000 000 -99 000 000 000 -99 -99 -99 -99
000 000 000 -99 -99 -99 000 000 000 -99 -99 000 000 000 000 -99 000 000 -99 -99 000 000 000 -99 -99 -99 -99 -99 -99 -99 -99
000 000 000 000 -99 -99 000 000 000 000 000 000 000 000 000 -99 000 000 000 000 000 000 000 -99 -99 -99 -99 -99 -99 -99 -99
000 000 000 000 000 000 -99 -99 000 000 000 000 000 000 000 000 000 000 000 000 -99 000 000 -99 -99 -99 -99 -99 -99 -99 -99
000 000 000 000 000 000 -99 -99 000 000 -99 000 000 000 000 000 000 000 000 000 -99 000 000 -99 -99 -99 -99 -99 -99 -99 -99
000 000 000 000 000 000 -99 000 000 000 -99 -99 000 000 000 000 000 000 000 000 -99 000 000 -99 -99 -99 -99 -99 -99 -99 -99
000 000 000 000 000 000 000 000 000 000 -99 -99 000 000 000 000 000 000 000 000 000 000 000 -99 -99 -99 -99 -99 -99 -99 -99
000 000 000 000 000 000 000 000 000 000 000 -99 000 000 000 000 000 000 000 000 000 000 000 -99 -99 -99 -99 -99 -99 -99 -99
000 000 000 000 000 000 000 000 000 000 000 -99 000 000 000 000 000 000 -99 000 000 000 -99 -99 -99 -99 -99 -99 -99 -99 -99
000 000 000 000 000 000 000 000 000 000 000 -99 -99 000 000 000 000 000 -99 000 -99 000 -99 -99 -99 -99 -99 -99 -99 -99 000
000 000 000 000 000 000 000 000 -99 000 -99 -99 -99 000 000 000 000 000 000 000 -99 000 -99 -99 -99 -99 -99 -99 -99 -99 000
000 000 000 000 000 000 000 000 000 000 -99 -99 -99 000 000 000 000 -99 000 000 000 000 -99 -99 -99 -99 -99 -99 -99 -99 000
000 000 000 000 000 000 000 000 000 000 000 -99 -99 000 000 000 000 -99 000 000 000 000 -99 -99 -99 -99 -99 -99 -99 -99 -99
000 000 000 000 000 000 000 000 000 000 000 -99 -99 000 000 -99 000 000 000 000 000 000 -99 -99 -99 -99 -99 -99 -99 -99 -99
000 000 000 000 000 000 000 000 000 -99 -99 -99 -99 000 000 000 000 000 000 -99 -99 -99 -99 -99 000 -99 -99 -99 -99 -99 -99
000 000 000 000 000 000 000 000 000 -99 -99 -99 -99 000 000 -99 000 000 000 -99 -99 -99 -99 -99 000 000 -99 -99 -99 -99 000
000 000 000 000 000 000 000 000 000 -99 -99 -99 -99 -99 000 000 000 000 000 -99 -99 000 000 000 000 000 -99 000 000 000 000
000 000 000 000 000 000 000 000 000 000 -99 000 000 -99 -99 -99 000 000 000 -99 000 000 000 000 000 000 000 000 000 000 000
000 000 000 000 000 000 000 000 000 000 000 000 000 -99 -99 000 000 000 000 000 000 000 000 000 000 000 000 000 000 000 000
000 000 000 000 000 -99 -99 000 000 000 -99 -99 000 -99 000 000 000 000 000 -99 000 000 000 000 000 000 000 000 000 -99 000
000 -99 -99 -99 000 -99 -99 -99 000 -99 -99 -99 -99 000 000 000 000 000 -99 -99 000 -99 000 000 000 000 000 -99 -99 -99 000
000 -99 000 000 000 000 -99 -99 -99 -99 -99 -99 -99 000 000 000 000 000 000 000 000 -99 000 000 000 000 -99 -99 -99 000 -99
-99 000 000 000 000 -99 -99 -99 -99 -99 -99 -99 000 000 000 000 000 000 000 000 000 -99 000 000 -99 000 -99 -99 -99 000 -99
-99 000 000 000 000 -99 -99 -99 -99 -99 000 -99 000 000 000 000 -99 000 000 000 000 -99 000 000 000 000 000 -99 -99 000 -99
000 000 000 000 -99 -99 -99 -99 -99 000 000 000 000 000 000 000 -99 -99 000 000 000 -99 000 -99 000 -99 -99 -99 -99 000 -99
000 000 -99 -99 -99 -99 -99 -99 -99 000 000 -99 000 000 -99 000 -99 -99 000 000 000 -99 -99 000 000 000 -99 -99 -99 -99 -99
000 -99 -99 -99 -99 000 -99 -99 -99 000 000 -99 -99 -99 000 000 -99 000 000 000 000 -99 000 000 000 -99 -99 -99 -99 -99 -99
000 -99 -99 -99 -99 000 -99 -99 -99 -99 000 000 000 000 000 000 -99 000 000 000 -99 -99 000 000 -99 -99 000 -99 -99 -99 -99
000 -99 -99 -99 -99 -99 -99 -99 -99 -99 000 000 000 000 000 -99 -99 000 000 -99 -99 -99 -99 000 -99 -99 000 -99 -99 -99 000
000 -99 -99 -99 -99 -99 -99 -99 -99 -99 000 000 000 -99 000 -99 -99 000 000 -99 -99 -99 000 000 -99 -99 000 -99 000 000 -99
-99 -99 -99 -99 -99 -99 -99 -99 000 -99 -99 000 000 -99 -99 -99 -99 000 -99 -99 000 000 000 000 -99 -99 -99 -99 000 -99 -99
-99 -99 -99 -99 -99 -99 -99 -99 -99 000 -99 -99 -99 -99 -99 -99 -99 -99 -99 -99 000 000 000 -99 -99 -99 -99 -99 -99 -99 -99
-99 -99 -99 -99 -99 -99 -99 -99 000 000 -99 -99 -99 -99 -99 -99 -99 -99 -99 -99 000 000 -99 -99 -99 -99 -99 -99 -99 -99 -99
-99 -99 -99 -99 -99 -99 -99 000 000 -99 -99 -99 -99 -99 -99 -99 -99 -99 -99 -99 -99 -99 -99 -99 -99 -99 -99 -99 -99 -99 -99
-99 -99 -99 -99 -99 -99 000 000 000 -99 -99 -99 -99 -99 -99 -99 -99 -99 -99 -99 -99 -99 -99 -99 -99 000 -99 -99 -99 -99 -99
-99 -99 -99 -99 -99 -99 000 000 -99 -99 -99 -99 -99 -99 -99 -99 -99 -99 -99 -99 -99 -99 -99 -99 000 -99 -99 -99 -99 -99 -99
-99 -99 -99 -99 -99 -99 -99 -99 -99 -99 -99 -99 -99 -99 -99 -99 -99 -99 -99 -99 -99 -99 -99 -99 -99 -99 -99 -99 -99 008 008
-99 -99 -99 -99 -99 -99 -99 -99 -99 -99 -99 -99 -99 -99 -99 -99 -99 -99 -99 -99 -99 -99 -99 -99 -99 -99 -99 -99 013 008 008
